Using license file /home/benedond/gurobi.lic
Using gurobi.env file
Set parameter Threads to value 1
Academic license - for non-commercial use only
Changed value of parameter TimeLimit to 300.0
   Prev: inf  Min: 0.0  Max: inf  Default: inf
Gurobi Optimizer version 9.0.1 build v9.0.1rc0 (linux64)
Optimize a model with 510 rows, 465 columns and 1843 nonzeros
Model fingerprint: 0xc0e26439
Variable types: 15 continuous, 450 integer (450 binary)
Coefficient statistics:
  Matrix range     [1e+00, 4e+02]
  Objective range  [4e+01, 4e+02]
  Bounds range     [1e+00, 1e+00]
  RHS range        [1e+00, 7e+02]
Presolve removed 307 rows and 292 columns
Presolve time: 0.05s
Presolved: 203 rows, 173 columns, 1339 nonzeros
Variable types: 14 continuous, 159 integer (159 binary)

Root relaxation: objective 2.663000e+03, 107 iterations, 0.00 seconds

    Nodes    |    Current Node    |     Objective Bounds      |     Work
 Expl Unexpl |  Obj  Depth IntInf | Incumbent    BestBd   Gap | It/Node Time

H    0     0                    2663.0000000 4010.00000  50.6%     -    0s
     0     0          -    0      2663.00000 2663.00000  0.00%     -    0s

Explored 0 nodes (192 simplex iterations) in 0.05 seconds
Thread count was 1 (of 4 available processors)

Solution count 1: 2663 

Optimal solution found (tolerance 1.00e-04)
Best objective 2.663000000000e+03, best bound 2.663000000000e+03, gap 0.0000%
